26379
1 0 0 1 1 0 0 0 1 0 1 0 1 0 1 0 1 0 1 1 0 1 0 1 1 1 0 1 1 0 
18 19 21 27 21 12 21 27 27 28 4 28 3 3 28 18 3 10 27 0 18 16 23 24 10 18 27 14 4 21 19 19 4 16 27 12 14 8 24 16 18 8 19 4 8 19 3 21 19 14 24 16 24 16 8 12 18 8 18 25 4 0 18 8 3 25 23 14 28 25 18 12 19 8 23 23 10 23 8 16 10 0 8 25 4 10 4 0 27 18 28 19 25 25 0 3 28 12 0 28 14 16 25 18 4 0 4 24 16 3 14 4 27 12 12 8 28 25 14 8 14 25 28 19 4 16 21 12 14 0 28 24 25 10 23 8 3 3 28 10 12 27 28 25 25 23 24 16 27 25 24 0 23 0 8 28 21 16 3 3 3 27 10 24 23 27 23 4 3 21 23 8 19 14 19 21 0 10 4 10 23 21 24 19 12 8 28 23 0 21 21 21 19 4 25 12 18 21 10 19 
